NAME : E-n10-k3
CAPACITY : 627
NODE_COORD_SECTION
1   373   491
2   278   160
3   471   174
4   422   199
5   442   311
6   482   269
7   56   137
8   369   136
9   213   68
10   358   494
DEMAND_SECTION
1   0
2   28
3   66
4   71
5   44
6   76
7   79
8   66
9   94
10   96
DEPOT_SECTION
    1
    -1
EOF